NAME: test1848
TYPE: TSP
DIMENSION: 11
EDGE_WEIGHT_TYPE: EUC_2D
NODE_COORD_SECTION
1 5.605693713656345 45.71777635953591
2 75.17308606650084 66.89635591969237
3 12.152708985716377 57.74294486072783
4 61.43942979159559 23.79384964310367
5 41.026190566541345 48.74057212454239
6 44.92266975402177 61.32359434183508
7 84.29344494889418 8.861658836029495
8 18.59217378657737 55.20377958037312
9 58.57382925015012 82.88440569764471
10 58.834295561498195 81.06560609862281
11 49.699431669767606 55.41560195295382
EOF
